
List of user-set options:

                                    Name   Value                used
                   hessian_approximation = limited-memory        yes
                           linear_solver = mumps                 yes
                  ma57_automatic_scaling = yes                    no
                                max_iter = 300                   yes
                             mu_strategy = adaptive              yes
                             output_file = Goddard-Rocket-ProblemIPOPTinfo.txt  yes
                             print_level = 5                     yes
                      print_user_options = yes                   yes
                                     tol = 1e-007                yes
This is Ipopt version 3.11.0, running with linear solver mumps.

Number of nonzeros in equality constraint Jacobian...:     2865
Number of nonzeros in inequality constraint Jacobian.:       79
Number of nonzeros in Lagrangian Hessian.............:        0

Total number of variables............................:      359
                     variables with only lower bounds:        0
                variables with lower and upper bounds:      359
                     variables with only upper bounds:        0
Total number of equality constraints.................:      320
Total number of inequality constraints...............:       41
        inequality constraints with only lower bounds:        0
   inequality constraints with lower and upper bounds:       41
        inequality constraints with only upper bounds:        0

iter    objective    inf_pr   inf_du lg(mu)  ||d||  lg(rg) alpha_du alpha_pr  ls
   0 3.1434661e+004 2.56e+003 1.00e+002   0.0 0.00e+000    -  0.00e+000 0.00e+000   0
   1 3.0372335e+004 2.47e+003 7.85e+004  -0.1 1.23e+002    -  1.17e-002 3.25e-002f  1
   2 2.9811239e+004 2.41e+003 6.17e+005   0.9 1.44e+002    -  1.94e-003 1.26e-002f  1
   3 2.9799626e+004 2.32e+003 7.77e+005  -0.1 6.03e+001    -  1.74e-002 1.16e-002h  1
   4 2.9957567e+004 2.32e+003 8.28e+005   0.4 1.73e+002    -  6.98e-003 1.31e-003h  1
   5 3.0121764e+004 2.31e+003 9.38e+005   1.3 2.11e+002    -  5.27e-003 4.23e-003f  1
   6 3.0106883e+004 2.30e+003 9.53e+005  -6.0 7.97e+001    -  8.32e-003 1.26e-003h  1
   7 3.0087448e+004 2.30e+003 9.41e+005   1.5 8.51e+001    -  3.01e-002 2.12e-003f  1
   8 3.0070496e+004 2.30e+003 9.45e+005  -5.7 1.81e+002    -  3.86e-003 2.61e-004h  1
   9 3.0002228e+004 2.30e+003 9.51e+005  -5.7 3.59e+002    -  7.89e-004 4.31e-004f  1
iter    objective    inf_pr   inf_du lg(mu)  ||d||  lg(rg) alpha_du alpha_pr  ls
  10 3.0078053e+004 2.29e+003 1.00e+006   1.8 2.44e+002    -  1.11e-002 3.15e-003f  1
  11 3.0423967e+004 2.29e+003 1.09e+006   2.4 6.18e+002    -  5.52e-003 9.77e-004h  1
  12 3.0362061e+004 2.29e+003 1.08e+006  -5.4 5.05e+002    -  5.73e-004 2.61e-004f  1
  13 3.0072784e+004 2.28e+003 5.95e+006   1.5 6.34e+002    -  3.49e-004 9.58e-004h  1
  14 3.0063069e+004 2.28e+003 6.14e+006   2.6 1.19e+003    -  6.14e-004 3.54e-005h  1
  15 3.0003401e+004 2.28e+003 1.08e+007   2.6 1.05e+003    -  6.08e-004 1.98e-004h  1
  16 2.9986225e+004 2.28e+003 1.36e+007   2.7 3.02e+003    -  2.38e-004 6.09e-005h  1
  17 2.9973608e+004 2.28e+003 1.63e+007   2.7 3.83e+003    -  1.92e-004 5.04e-005h  1
  18 2.9964399e+004 2.28e+003 2.36e+007   2.7 3.13e+003    -  3.30e-005 2.89e-005h  1
  19 2.9961007e+004 2.28e+003 2.82e+007   2.7 1.24e+004    -  1.72e-005 1.15e-005h  1
iter    objective    inf_pr   inf_du lg(mu)  ||d||  lg(rg) alpha_du alpha_pr  ls
  20 2.9959786e+004 2.28e+003 3.07e+007  -5.3 3.08e+004    -  4.00e-006 4.66e-006h  1
  21 2.9958804e+004 2.28e+003 3.25e+007   2.7 5.94e+004    -  3.11e-007 3.92e-006f  2
  22 2.9958253e+004 2.28e+003 3.45e+007  -5.3 1.50e+004    -  7.64e-006 2.17e-006h  1
  23 2.9957855e+004 2.28e+003 3.65e+007   2.7 2.15e+004    -  6.08e-008 1.83e-006f  3
  24r2.9957855e+004 2.28e+003 1.00e+003   2.7 0.00e+000    -  0.00e+000 4.90e-007R  4
  25r3.0045882e+004 5.73e+002 9.73e+002   0.5 1.02e+003    -  3.07e-002 2.17e-002f  1
  26 3.1554679e+004 5.59e+002 6.81e+005  -0.1 6.79e+001    -  9.83e-004 2.29e-002f  1
  27 3.1494373e+004 5.39e+002 1.71e+006  -1.5 6.00e+001    -  1.59e-002 3.48e-002h  1
  28 3.1203055e+004 5.30e+002 2.04e+006  -0.1 9.21e+001    -  5.92e-002 1.48e-002f  1
  29 3.1356908e+004 5.02e+002 2.94e+006  -1.7 4.84e+001    -  5.16e-002 5.29e-002h  1
iter    objective    inf_pr   inf_du lg(mu)  ||d||  lg(rg) alpha_du alpha_pr  ls
  30 3.1392907e+004 5.00e+002 3.00e+006  -6.0 3.73e+001    -  5.51e-002 4.99e-003h  1
  31 3.1393236e+004 4.94e+002 3.11e+006   1.0 5.07e+001    -  3.76e-002 1.06e-002f  1
  32 3.1563879e+004 4.87e+002 3.41e+006   0.7 2.50e+001    -  5.95e-002 1.29e-002h  1
  33 3.1482203e+004 4.85e+002 5.74e+003   2.1 9.61e+001    -  2.10e-002 5.97e-003f  1
  34 3.1633581e+004 4.82e+002 4.48e+009   2.6 1.04e+002    -  3.71e-003 1.88e-003h  1
  35 3.1532988e+004 4.79e+002 4.81e+009   2.8 6.55e+001    -  7.00e-002 1.18e-002h  1
  36 3.1585176e+004 4.73e+002 5.16e+009   2.8 4.20e+001    -  9.15e-001 1.51e-002h  1
  37 3.1602915e+004 4.73e+002 5.20e+009   3.0 3.29e+001    -  1.52e-002 2.26e-003h  1
  38 3.1611680e+004 4.71e+002 5.10e+009   3.0 1.34e+002    -  4.79e-003 3.28e-003h  1
  39 3.1619343e+004 4.70e+002 4.66e+009  -3.2 1.53e+002    -  1.44e-003 1.55e-003h  1
iter    objective    inf_pr   inf_du lg(mu)  ||d||  lg(rg) alpha_du alpha_pr  ls
  40 3.1625137e+004 4.70e+002 5.32e+009   3.0 9.69e+001    -  2.48e-004 1.55e-003h  1
  41 3.1625990e+004 4.70e+002 5.31e+009   3.0 7.89e+001    -  2.47e-003 8.42e-005h  1
  42 3.1630708e+004 4.69e+002 5.00e+009   3.0 1.08e+002    -  1.62e-003 5.71e-004h  1
  43 3.1631833e+004 4.69e+002 4.69e+009   3.0 5.41e+002    -  1.55e-004 7.96e-005h  1
  44 3.1634188e+004 4.69e+002 4.24e+009   3.0 1.96e+003    -  4.84e-005 2.57e-004h  1
  45 3.1634951e+004 4.69e+002 2.19e+009   3.0 4.29e+002    -  6.63e-005 8.89e-004h  1
  46 3.1635058e+004 4.68e+002 6.83e+008   3.0 3.94e+002    -  1.32e-004 8.50e-004h  1
  47r3.1635058e+004 4.68e+002 9.87e+002   3.0 0.00e+000    -  0.00e+000 2.93e-007R  4
  48r3.1635058e+004 1.33e+002 7.53e+002  -3.2 3.51e+001    -  2.37e-001 1.70e-001f  1
  49 3.1634768e+004 1.33e+002 1.02e+002   0.8 1.11e+003    -  3.98e-007 1.09e-006f  1
iter    objective    inf_pr   inf_du lg(mu)  ||d||  lg(rg) alpha_du alpha_pr  ls
  50r3.1634768e+004 1.33e+002 9.99e+002   0.3 0.00e+000    -  0.00e+000 2.72e-007R  5
  51r3.1635107e+004 1.32e+002 9.99e+002  -5.8 1.29e+003    -  9.88e-004 1.13e-005f  1
  52r3.1584475e+004 3.52e+001 9.97e+002   0.0 7.83e+002    -  1.50e-003 2.16e-003f  1
  53 3.1634604e+004 3.48e+001 7.46e+004   0.8 5.60e+000   4.0 1.00e+000 2.30e-003f  1
  54 3.1619732e+004 3.45e+001 8.93e+004   2.9 1.22e+002    -  1.38e-003 3.22e-003f  1
  55 3.1634956e+004 3.42e+001 1.22e+005   2.9 5.58e+001    -  1.91e-003 6.85e-003f  1
  56 3.1624210e+004 3.37e+001 1.17e+005   3.0 4.95e+001    -  8.48e-003 6.53e-003f  1
  57 3.1600156e+004 3.03e+001 1.37e+005   3.0 4.66e+001    -  4.61e-003 1.78e-002f  1
  58 3.1598562e+004 2.74e+001 1.45e+005   2.2 4.38e+001    -  4.38e-002 1.54e-002h  1
  59 3.1601923e+004 2.72e+001 1.47e+005   1.6 4.18e+001    -  2.36e-002 6.20e-003h  1
iter    objective    inf_pr   inf_du lg(mu)  ||d||  lg(rg) alpha_du alpha_pr  ls
  60 3.1605165e+004 2.63e+001 1.45e+005   2.9 4.13e+001    -  1.09e-002 9.60e-003f  1
  61 3.1595439e+004 2.58e+001 2.65e+005   3.0 4.24e+001    -  5.26e-003 2.48e-002f  1
  62 3.1596308e+004 2.58e+001 2.65e+005  -4.4 3.88e+001    -  1.39e-002 7.55e-004h  1
  63 3.1594089e+004 2.65e+001 2.64e+005   2.6 1.21e+002    -  4.21e-002 8.06e-003h  1
  64 3.1598836e+004 2.66e+001 2.64e+005   2.9 3.56e+001    -  7.84e-003 1.88e-003h  1
  65 3.1599518e+004 2.74e+001 2.62e+005   2.8 4.03e+001    -  2.16e-002 8.98e-003f  1
  66 3.1603691e+004 2.77e+001 2.63e+005   3.0 3.92e+001    -  1.40e-002 9.46e-003f  1
  67 3.1609428e+004 3.02e+001 2.64e+005   3.0 3.87e+001    -  2.78e-002 1.13e-002f  1
  68 3.1612534e+004 3.02e+001 1.18e+006   2.6 2.13e+001    -  2.30e-002 3.30e-004h  1
  69 3.1627084e+004 3.02e+001 2.03e+006   3.0 1.75e+002    -  3.00e-003 1.47e-003h  1
iter    objective    inf_pr   inf_du lg(mu)  ||d||  lg(rg) alpha_du alpha_pr  ls
  70 3.1627618e+004 3.02e+001 3.56e+006   3.0 5.64e+002    -  5.27e-004 5.98e-005h  4
  71 3.1628092e+004 3.02e+001 6.52e+006   3.0 5.21e+002    -  6.23e-004 5.67e-005h  4
  72 3.1628217e+004 3.02e+001 1.02e+007   3.0 6.54e+002    -  4.56e-004 1.68e-005f  6
  73 3.1628488e+004 3.02e+001 1.64e+007   3.0 8.02e+002    -  5.48e-004 3.85e-005f  5
  74r3.1628488e+004 3.02e+001 9.96e+002   2.0 0.00e+000    -  0.00e+000 3.18e-007R 12
  75r3.1128967e+004 1.35e+000 1.08e+003   1.9 3.44e+001    -  5.27e-001 3.27e-001f  1
  76 3.1189734e+004 1.52e+000 1.76e+002   0.4 2.33e+001    -  8.55e-001 1.94e-002h  1
  77 3.1630656e+004 1.29e+000 1.63e+003   1.0 5.00e+000    -  1.93e-001 2.77e-002h  1
  78 3.1617406e+004 1.27e+000 7.92e+004   1.6 2.94e+001    -  1.00e+000 1.66e-002h  1
  79 3.1634933e+004 1.27e+000 1.26e+005   3.0 4.04e+001    -  1.24e-002 7.81e-003h  1
iter    objective    inf_pr   inf_du lg(mu)  ||d||  lg(rg) alpha_du alpha_pr  ls
  80 3.1634945e+004 1.28e+000 2.40e+006   3.0 3.26e+001    -  1.67e-002 5.03e-004h  1
  81 3.1634983e+004 1.28e+000 7.41e+006   3.0 1.13e+002    -  3.13e-003 3.45e-004h  3
  82 3.1634986e+004 1.28e+000 1.84e+007   3.0 2.38e+002    -  1.77e-003 3.31e-005h  6
  83r3.1634986e+004 1.28e+000 9.81e+002   3.0 0.00e+000    -  0.00e+000 2.57e-007R 13
  84r3.1108181e+004 1.60e+000 1.80e+002   1.5 1.75e+001    -  8.97e-001 8.70e-001f  1
  85 2.8241481e+004 4.68e-001 2.26e+002  -0.0 2.50e+001    -  4.26e-001 7.09e-001H  1
  86 2.8142692e+004 3.76e-001 1.90e+002   0.3 4.72e+000    -  9.42e-001 2.00e-001f  1
  87 2.7955661e+004 2.91e-001 3.21e+002   1.0 4.61e+000    -  5.73e-001 2.26e-001h  1
  88 2.8002449e+004 2.34e-001 6.73e+002   1.0 1.90e+000    -  7.28e-001 1.98e-001h  1
  89 2.8019081e+004 2.24e-001 1.65e+004   2.4 8.60e+000    -  4.81e-001 4.47e-002h  1
iter    objective    inf_pr   inf_du lg(mu)  ||d||  lg(rg) alpha_du alpha_pr  ls
  90 2.8067323e+004 2.02e-001 2.16e+004  -3.9 8.81e-001    -  2.84e-001 9.59e-002h  1
  91 2.8136994e+004 1.79e-001 8.05e+004   1.9 1.45e+000    -  5.87e-001 1.16e-001h  1
  92 2.8171900e+004 1.73e-001 1.35e+006   2.7 3.25e+000    -  5.75e-001 3.60e-002h  1
  93 2.8219533e+004 1.70e-001 1.69e+006   3.0 1.65e+001    -  2.47e-002 1.79e-002h  1
  94 2.8249441e+004 1.69e-001 5.60e+006   3.0 2.21e+001    -  4.80e-002 4.93e-003h  2
  95 2.8264052e+004 1.68e-001 2.46e+007   3.0 2.31e+001    -  3.55e-002 3.05e-003h  2
  96 2.8275873e+004 1.68e-001 8.08e+007   3.0 8.02e+001    -  1.89e-002 2.68e-003h  2
  97 2.8278342e+004 1.68e-001 1.88e+008   3.0 1.48e+002    -  5.88e-003 8.19e-004h  2
  98 2.8279754e+004 1.68e-001 2.56e+008   3.0 5.23e+002    -  1.46e-003 4.04e-004h  2
  99 2.8281094e+004 1.67e-001 4.89e+008   3.0 4.87e+002    -  2.58e-003 4.39e-004h  1
iter    objective    inf_pr   inf_du lg(mu)  ||d||  lg(rg) alpha_du alpha_pr  ls
 100 2.8281796e+004 1.67e-001 7.38e+008   3.0 4.39e+002    -  1.16e-003 2.26e-004h  3
 101 2.8282267e+004 1.67e-001 9.49e+008   3.0 3.95e+002    -  6.55e-004 1.89e-004h  3
 102 2.8282808e+004 1.67e-001 1.70e+009   3.0 3.59e+002    -  1.29e-003 1.57e-004h  3
 103 2.8283144e+004 1.67e-001 2.26e+009   3.0 1.02e+003    -  5.55e-004 1.17e-004h  3
 104 2.8283518e+004 1.67e-001 3.31e+009   3.0 1.50e+003    -  6.97e-004 1.20e-004h  2
 105 2.8283821e+004 1.67e-001 1.19e+010   3.0 8.31e+002    -  3.02e-003 1.09e-004h  2
 106 2.8284084e+004 1.67e-001 1.57e+010   3.0 2.38e+002    -  4.39e-004 7.55e-005h  4
 107 2.8284283e+004 1.67e-001 2.18e+010   3.0 2.55e+002    -  4.91e-004 8.57e-005h  4
 108 2.8284434e+004 1.67e-001 8.65e+010   3.0 2.33e+002    -  2.82e-003 4.50e-005h  5
 109 2.8284593e+004 1.67e-001 1.85e+011   3.0 2.05e+002    -  1.16e-003 5.36e-005h  5
iter    objective    inf_pr   inf_du lg(mu)  ||d||  lg(rg) alpha_du alpha_pr  ls
 110 2.8286725e+004 1.67e-001 1.11e+011   3.0 3.13e+002    -  5.15e-004 8.81e-004w  1
 111 2.8288641e+004 1.67e-001 9.55e+010   3.0 4.32e+003    -  6.18e-005 6.91e-005w  1
 112 2.8287505e+004 1.67e-001 1.97e+011   2.3 6.59e+002    -  2.29e-005 3.96e-004h  1
 113r2.8287505e+004 1.67e-001 9.99e+002   1.6 0.00e+000    -  0.00e+000 3.05e-007R  6
 114r2.8256292e+004 1.89e-001 1.17e+004   0.8 8.92e-001    -  8.77e-001 5.92e-001f  1
 115r2.8261423e+004 2.18e-001 3.17e+003  -4.5 1.66e+000    -  7.21e-001 5.12e-001f  1
 116 2.8264148e+004 2.14e-001 1.34e+002  -0.7 2.80e-001   4.4 9.87e-001 1.80e-002h  1
 117 2.8262861e+004 1.59e-001 1.15e+003   1.3 1.98e+001   3.5 3.59e-004 2.78e-003f  1
 118 2.8263406e+004 1.55e-001 2.27e+003   0.9 1.25e-001   4.3 4.35e-001 2.74e-001f  1
 119 3.0551742e+004 8.07e-001 4.82e+003   1.9 5.12e+001    -  1.93e-001 8.53e-002f  1
iter    objective    inf_pr   inf_du lg(mu)  ||d||  lg(rg) alpha_du alpha_pr  ls
 120 3.0335540e+004 7.27e-001 4.04e+003   1.2 4.16e+000   3.4 3.95e-002 9.95e-002h  1
 121 3.0285976e+004 7.09e-001 4.84e+003   0.5 4.01e+000    -  1.70e-001 2.37e-002h  1
 122 3.0236041e+004 6.92e-001 1.41e+004  -0.2 5.25e+000    -  7.37e-002 2.47e-002h  1
 123 3.0234839e+004 6.92e-001 2.11e+004  -0.2 1.45e+001    -  3.43e-003 5.85e-004h  1
 124 3.0218938e+004 6.87e-001 8.97e+003  -0.2 3.02e+001    -  1.91e-003 7.61e-003h  1
 125 3.0213762e+004 6.85e-001 6.40e+004  -0.2 4.94e+001    -  1.15e-002 2.29e-003h  1
 126 3.0205678e+004 6.83e-001 8.20e+004  -0.2 7.30e+001    -  4.06e-003 3.03e-003h  1
 127 3.0199945e+004 6.82e-001 1.11e+005  -0.9 1.41e+002    -  3.41e-003 2.41e-003h  1
 128 3.0199476e+004 6.81e-001 2.39e+005  -0.9 1.89e+002    -  1.24e-003 6.58e-004h  1
 129 3.0198319e+004 6.81e-001 1.08e+005  -0.9 5.19e+002    -  1.70e-004 5.07e-004h  1
iter    objective    inf_pr   inf_du lg(mu)  ||d||  lg(rg) alpha_du alpha_pr  ls
 130 3.0196571e+004 6.80e-001 3.63e+004  -1.6 8.11e+002    -  4.30e-004 7.90e-004h  1
 131 3.0196516e+004 6.80e-001 2.44e+005  -1.6 6.52e+002    -  3.26e-004 5.08e-005h  1
 132 3.0195577e+004 6.80e-001 2.72e+005  -1.6 6.08e+002    -  4.04e-004 3.43e-004h  1
 133 3.0192543e+004 6.80e-001 1.94e+005  -1.6 2.41e+002    -  3.40e-005 4.56e-004f  2
 134 3.0190446e+004 6.79e-001 1.58e+005  -1.6 1.98e+002    -  3.66e-005 4.07e-004f  2
 135 3.0189964e+004 6.79e-001 2.26e+005  -1.6 2.11e+002    -  3.75e-004 1.04e-004h  3
 136 3.0189231e+004 6.79e-001 6.41e+005  -1.6 2.13e+002    -  1.51e-003 1.53e-004h  2
 137 3.0188772e+004 6.79e-001 4.68e+005  -1.6 1.75e+002    -  1.36e-005 1.87e-004h  1
 138 3.0188792e+004 6.79e-001 3.52e+005  -1.6 5.67e+002    -  7.91e-006 3.17e-005h  1
 139 3.0188850e+004 6.79e-001 3.76e+005  -1.6 6.32e+002    -  3.96e-005 3.53e-005h  1
iter    objective    inf_pr   inf_du lg(mu)  ||d||  lg(rg) alpha_du alpha_pr  ls
 140 3.0188926e+004 6.79e-001 9.10e+005  -1.6 7.55e+002    -  1.45e-004 6.29e-005h  1
 141 3.0190005e+004 6.79e-001 1.71e+005  -1.6 1.83e+003    -  9.98e-005 2.82e-004h  1
 142r3.0190005e+004 6.79e-001 1.00e+003  -0.7 0.00e+000    -  0.00e+000 4.19e-007R  5
 143r3.0104939e+004 6.78e-001 1.70e+003   1.7 6.81e+001    -  1.75e-002 3.18e-003f  1
 144 3.0103689e+004 6.78e-001 1.00e+002  -2.5 3.18e+000    -  3.43e-003 7.52e-004h  1
 145 3.0103547e+004 6.78e-001 3.34e+002  -2.5 3.19e+000    -  5.66e-003 8.55e-005h  1
 146r3.0103547e+004 6.78e-001 9.99e+002  -1.2 0.00e+000    -  0.00e+000 4.72e-007R  7
 147r3.0177334e+004 6.80e-001 9.95e+002   0.3 2.47e+002    -  4.04e-003 1.08e-003f  1
 148 3.0177194e+004 6.80e-001 1.21e+002  -2.5 6.06e+000    -  1.28e-002 1.09e-004h  1
 149 3.0177128e+004 6.80e-001 1.56e+002  -2.5 2.44e+001    -  9.51e-004 6.44e-005h  5
iter    objective    inf_pr   inf_du lg(mu)  ||d||  lg(rg) alpha_du alpha_pr  ls
 150 3.0177031e+004 6.80e-001 1.10e+003  -2.5 3.00e+001    -  1.58e-002 7.15e-005h  5
 151 3.0176181e+004 6.80e-001 1.93e+003  -2.5 6.62e+001    -  2.39e-003 2.63e-004h  4
 152 3.0175606e+004 6.80e-001 7.10e+003  -2.5 4.92e+001    -  5.37e-003 2.13e-004h  4
 153 3.0175137e+004 6.79e-001 9.93e+003  -2.5 1.03e+002    -  8.42e-004 1.86e-004h  4
 154 3.0174830e+004 6.79e-001 9.97e+003  -2.5 1.50e+002    -  1.56e-004 1.51e-004h  4
 155 3.0174614e+004 6.79e-001 1.03e+004  -2.5 2.77e+002    -  1.65e-004 1.24e-004h  4
 156 3.0174482e+004 6.79e-001 1.82e+004  -2.5 3.31e+002    -  8.53e-004 1.10e-004h  4
 157 3.0174348e+004 6.79e-001 2.30e+004  -2.5 4.13e+002    -  3.65e-004 1.06e-004h  4
 158 3.0174224e+004 6.79e-001 4.19e+004  -2.5 3.95e+002    -  7.90e-004 9.93e-005h  4
 159 3.0172627e+004 6.79e-001 4.05e+004  -2.5 4.34e+002    -  7.54e-004 7.80e-004w  1
iter    objective    inf_pr   inf_du lg(mu)  ||d||  lg(rg) alpha_du alpha_pr  ls
 160 3.0172302e+004 6.78e-001 2.09e+005  -2.5 5.26e+002    -  4.46e-004 7.36e-005w  1
 161 3.0172482e+004 6.78e-001 1.23e+006  -2.5 7.80e+002    -  3.93e-004 5.29e-005w  1
 162 3.0174024e+004 6.79e-001 7.63e+004  -2.5 6.98e+002    -  7.54e-004 9.76e-005h  3
 163 3.0173910e+004 6.79e-001 2.33e+005  -2.5 4.16e+002    -  1.56e-003 8.43e-005h  4
 164 3.0173809e+004 6.79e-001 4.39e+005  -2.5 4.20e+002    -  6.50e-004 2.21e-005h  6
 165 3.0173729e+004 6.79e-001 8.58e+005  -2.5 3.95e+002    -  6.90e-004 1.96e-005h  6
 166 3.0173633e+004 6.79e-001 2.01e+006  -2.5 3.74e+002    -  9.57e-004 2.05e-005h  6
 167 3.0173546e+004 6.79e-001 5.84e+006  -2.5 4.42e+002    -  1.32e-003 1.91e-005h  6
 168 3.0173462e+004 6.79e-001 1.37e+007  -2.5 6.42e+002    -  9.24e-004 1.94e-005h  6
 169r3.0173462e+004 6.79e-001 1.00e+003  -1.4 0.00e+000    -  0.00e+000 4.68e-007R 11
iter    objective    inf_pr   inf_du lg(mu)  ||d||  lg(rg) alpha_du alpha_pr  ls
 170r3.0211083e+004 6.75e-001 9.99e+002  -1.5 3.78e+001    -  8.79e-003 2.31e-003f  1
 171r3.0211083e+004 6.75e-001 9.99e+002  -1.9 0.00e+000    -  0.00e+000 4.13e-007R  7
 172r3.0212817e+004 6.96e-001 9.97e+002   0.1 1.77e+001    -  2.36e-003 1.12e-003f  1
 173 3.0203678e+004 6.93e-001 9.91e+001  -2.5 3.49e+000    -  2.91e-001 5.07e-003h  1
 174 3.0203629e+004 6.93e-001 2.23e+002  -2.5 9.67e+000    -  6.16e-003 4.01e-005h  6
 175 3.0203481e+004 6.93e-001 1.25e+003  -2.5 9.22e+000    -  1.19e-002 1.08e-004h  5
 176 3.0203329e+004 6.92e-001 1.33e+004  -2.5 2.52e+001    -  2.60e-002 1.12e-004h  5
 177 3.0203114e+004 6.92e-001 4.09e+004  -2.5 8.42e+001    -  5.63e-003 1.88e-004h  1
 178 3.0202963e+004 6.92e-001 9.67e+004  -2.5 1.09e+002    -  3.24e-003 1.71e-004h  2
 179 3.0202782e+004 6.92e-001 4.05e+005  -2.5 1.11e+002    -  6.58e-003 1.63e-004h  4
iter    objective    inf_pr   inf_du lg(mu)  ||d||  lg(rg) alpha_du alpha_pr  ls
 180 3.0202632e+004 6.92e-001 1.05e+006  -2.5 2.07e+002    -  3.04e-003 1.02e-004h  5
 181 3.0202486e+004 6.92e-001 2.06e+006  -2.5 1.85e+002    -  1.76e-003 5.05e-005h  6
 182 3.0202351e+004 6.92e-001 7.58e+006  -2.5 2.53e+002    -  4.62e-003 8.20e-005h  5
 183 3.0202189e+004 6.92e-001 4.43e+007  -2.5 2.19e+002    -  7.99e-003 8.88e-005h  5
 184 3.0202063e+004 6.92e-001 1.04e+008  -2.5 1.90e+002    -  2.13e-003 4.71e-005h  6
 185 3.0201837e+004 6.92e-001 3.07e+008  -2.5 1.85e+002    -  3.01e-003 9.11e-005h  5
 186 3.0201721e+004 6.92e-001 1.88e+009  -2.5 1.86e+002    -  7.18e-003 4.22e-005h  6
 187 3.0201618e+004 6.92e-001 9.48e+009  -2.5 1.89e+002    -  5.61e-003 4.20e-005h  6
 188 3.0198281e+004 6.91e-001 6.93e+010  -2.5 1.88e+002    -  9.71e-003 1.29e-003w  1
 189 3.0201953e+004 6.91e-001 4.44e+010  -2.5 1.86e+003    -  1.66e-005 5.94e-005w  1
iter    objective    inf_pr   inf_du lg(mu)  ||d||  lg(rg) alpha_du alpha_pr  ls
 190 3.0199225e+004 6.91e-001 1.74e+010  -2.5 1.17e+003    -  9.11e-007 8.80e-005w  1
 191 3.0201514e+004 6.92e-001 7.83e+010  -2.5 1.72e+003    -  9.71e-003 4.04e-005h  5
 192 3.0201419e+004 6.92e-001 4.17e+011  -2.5 1.89e+002    -  5.64e-003 3.98e-005h  6
 193r3.0201419e+004 6.92e-001 1.00e+003  -2.1 0.00e+000    -  0.00e+000 3.05e-007R 12
 194r3.0222128e+004 7.03e-001 1.00e+003  -0.4 4.67e+001    -  3.26e-002 1.35e-003f  1
 195 3.0222059e+004 7.03e-001 6.21e+005   0.7 5.82e+000    -  7.45e-001 3.61e-005h  1
 196 3.0221074e+004 7.02e-001 1.71e+008   2.3 4.23e+000    -  1.00e+000 4.52e-004h  1
 197 3.0221368e+004 7.02e-001 1.71e+008   3.0 5.32e+001    -  2.64e-004 2.64e-004s 11
 198r3.0221368e+004 7.02e-001 8.38e+002   2.3 0.00e+000    -  0.00e+000 3.93e-007R  4
 199r3.0196659e+004 6.96e-001 4.27e+002   0.2 2.10e-001    -  9.79e-001 9.64e-001f  1
iter    objective    inf_pr   inf_du lg(mu)  ||d||  lg(rg) alpha_du alpha_pr  ls
 200r3.0295008e+004 6.96e-001 1.11e+002  -5.2 7.98e-002    -  7.58e-001 9.37e-001f  1
 201r3.0407097e+004 6.78e-001 4.08e+001  -6.1 1.99e-001    -  6.87e-001 8.41e-001f  1
 202r3.0423127e+004 4.98e-001 6.58e+001  -6.6 2.44e-001    -  8.27e-001 6.81e-001f  1
 203r3.0323085e+004 2.48e-001 1.14e+002  -3.0 2.87e-001    -  4.79e-001 7.52e-001f  1
 204r3.0170732e+004 1.68e-001 5.90e+001  -3.0 4.32e-001    -  6.19e-001 6.76e-001f  1
 205r2.9881201e+004 7.22e-002 6.28e+001  -3.3 7.81e-001    -  5.80e-001 7.10e-001f  1
 206r2.9562957e+004 2.74e-002 5.55e+001  -3.4 9.02e-001    -  6.06e-001 6.75e-001f  1
 207r2.9390160e+004 2.21e-002 3.02e+002  -3.6 6.81e-001    -  9.31e-001 4.85e-001h  1
 208 2.9232802e+004 1.90e-002 8.53e+001  -1.5 2.07e+000    -  7.76e-001 1.45e-001f  1
 209 2.9198699e+004 1.82e-002 8.19e+001  -6.6 1.83e+000    -  1.86e-001 4.01e-002f  1
iter    objective    inf_pr   inf_du lg(mu)  ||d||  lg(rg) alpha_du alpha_pr  ls
 210 2.9196507e+004 1.82e-002 2.58e+002  -1.5 9.07e+000    -  8.86e-002 2.86e-003h  3
 211 2.9192971e+004 1.80e-002 1.90e+004   0.3 2.51e+001    -  1.00e+000 6.84e-003f  2
 212 2.9193746e+004 1.80e-002 3.94e+004   1.7 5.06e+001    -  1.54e-002 2.88e-004h  6
 213 2.9194426e+004 1.80e-002 4.91e+004   0.4 4.37e+001    -  4.07e-003 3.12e-004h  6
 214 2.9195191e+004 1.80e-002 5.31e+004  -0.3 8.10e+001    -  1.56e-003 3.17e-004h  6
 215 2.9199860e+004 1.80e-002 1.72e+005   2.4 1.49e+002    -  3.14e-002 1.44e-003f  3
 216 2.9200159e+004 1.80e-002 2.59e+005   1.0 4.30e+001    -  5.90e-003 2.52e-004h  6
 217 2.9200609e+004 1.80e-002 4.44e+005   0.3 6.30e+001    -  8.19e-003 2.71e-004h  6
 218 2.9201216e+004 1.80e-002 5.91e+005  -0.4 7.02e+001    -  4.00e-003 2.84e-004h  6
 219 2.9201536e+004 1.80e-002 7.48e+005  -0.4 7.04e+001    -  3.00e-003 1.41e-004h  7
iter    objective    inf_pr   inf_du lg(mu)  ||d||  lg(rg) alpha_du alpha_pr  ls
 220 2.9201860e+004 1.80e-002 1.01e+006  -0.4 7.28e+001    -  3.80e-003 1.39e-004h  7
 221 2.9202188e+004 1.80e-002 1.55e+006  -0.4 7.49e+001    -  5.80e-003 1.38e-004h  7
 222 2.9202523e+004 1.80e-002 2.17e+006  -0.4 7.42e+001    -  4.35e-003 1.37e-004h  7
 223 2.9202861e+004 1.80e-002 3.09e+006  -0.4 7.42e+001    -  4.47e-003 1.35e-004h  7
 224 2.9203201e+004 1.80e-002 3.84e+006  -0.4 7.43e+001    -  2.57e-003 1.34e-004h  7
 225 2.9203520e+004 1.80e-002 6.77e+006  -0.4 7.72e+001    -  7.69e-003 1.24e-004h  7
 226 2.9203821e+004 1.80e-002 8.58e+006  -0.4 7.82e+001    -  2.76e-003 1.17e-004h  7
 227 2.9204119e+004 1.80e-002 1.74e+007  -0.4 7.75e+001    -  1.00e-002 1.15e-004h  7
 228 2.9223397e+004 1.78e-002 9.42e+006  -0.4 7.42e+001    -  3.17e-003 7.48e-003w  1
 229r2.9223397e+004 1.78e-002 1.00e+003  -1.1 0.00e+000    -  0.00e+000 4.16e-007R 12
iter    objective    inf_pr   inf_du lg(mu)  ||d||  lg(rg) alpha_du alpha_pr  ls
 230r2.9220018e+004 1.79e-002 1.36e+003   0.3 1.78e+000    -  1.27e-001 8.78e-003f  1
 231 2.9219674e+004 1.79e-002 9.43e+002  -1.1 1.73e+000    -  1.95e-001 4.17e-004h  1
 232 2.9221662e+004 1.79e-002 9.42e+002  -1.1 2.71e+001    -  7.03e-004 7.03e-004s 12
 233r2.9221662e+004 1.79e-002 9.99e+002  -1.1 0.00e+000    -  0.00e+000 0.00e+000R  1
 234r2.9214691e+004 2.79e-002 9.66e+002   0.0 2.02e+001    -  4.08e-002 5.84e-003f  1
 235 2.9214494e+004 2.79e-002 5.67e+002  -1.1 7.43e+000    -  6.17e-002 1.83e-004h  2
 236r2.9214494e+004 2.79e-002 9.81e+002  -1.1 0.00e+000    -  0.00e+000 4.17e-007R 11
 237r2.9196847e+004 5.47e-002 8.66e+002  -0.3 1.57e+000    -  1.16e-001 2.12e-002f  1
 238r2.9201158e+004 5.56e-002 4.92e+002  -2.4 6.04e-002    -  7.68e-001 1.36e-001f  1
 239r2.9234218e+004 5.13e-002 2.04e+002  -6.8 1.15e-001    -  6.22e-001 5.47e-001f  1
iter    objective    inf_pr   inf_du lg(mu)  ||d||  lg(rg) alpha_du alpha_pr  ls
 240 2.9233971e+004 5.12e-002 6.87e+002  -6.0 1.67e+000    -  2.25e-001 3.24e-004h  1
 241r2.9233971e+004 5.12e-002 9.99e+002  -2.6 0.00e+000    -  0.00e+000 2.62e-007R 13
 242r2.9233853e+004 5.22e-002 9.71e+002  -0.8 2.33e+000    -  8.44e-002 1.10e-003f  1
 243r2.9233853e+004 5.22e-002 9.99e+002  -3.2 0.00e+000    -  0.00e+000 3.05e-007R  9
 244r2.9234118e+004 5.28e-002 9.36e+002  -1.5 1.06e+000    -  9.79e-002 1.05e-003f  1
 245r2.9234118e+004 5.28e-002 4.11e+002  -0.8 0.00e+000    -  0.00e+000 4.62e-007R  6
 246r2.9228280e+004 5.23e-002 7.90e+001  -6.6 1.91e-002    -  8.08e-001 5.83e-001f  1
 247 2.9228155e+004 5.23e-002 7.17e+002  -6.0 3.51e+000    -  1.22e-001 1.68e-004f  1
 248 2.9228645e+004 5.23e-002 2.28e+003  -6.1 2.93e+001    -  8.85e-003 1.22e-004h  4
 249r2.9228645e+004 5.23e-002 9.99e+002  -4.2 0.00e+000    -  0.00e+000 3.10e-007R 13
iter    objective    inf_pr   inf_du lg(mu)  ||d||  lg(rg) alpha_du alpha_pr  ls
 250r2.9228564e+004 5.23e-002 5.81e+002  -6.3 1.55e-001    -  5.24e-001 9.94e-004f  1
 251r2.9228564e+004 5.23e-002 9.99e+002  -4.8 0.00e+000    -  0.00e+000 3.15e-007R 13
 252r2.9228779e+004 5.27e-002 9.97e+002  -2.6 9.11e-001    -  1.32e-001 1.18e-003f  1
 253r2.9155911e+004 4.69e-002 9.36e+002  -2.9 3.85e+000    -  2.51e-001 3.62e-002f  1
 254r2.9115818e+004 3.95e-002 8.28e+002  -4.6 7.93e-001    -  6.34e-001 9.66e-002f  1
 255r2.9002210e+004 3.58e-002 4.77e+002  -3.6 6.75e-001    -  6.32e-001 3.21e-001f  1
 256r2.8904106e+004 3.56e-002 3.05e+002  -4.1 4.42e-001    -  6.05e-001 4.23e-001f  1
 257r2.8786064e+004 2.96e-002 1.48e+002  -3.8 2.56e-001    -  6.43e-001 8.80e-001h  1
 258r2.8746856e+004 3.25e-002 1.36e+001  -4.7 1.02e-001    -  9.07e-001 9.74e-001h  1
 259r2.8705697e+004 2.64e-002 9.14e+000  -5.0 1.11e-001    -  9.95e-001 7.07e-001h  1
iter    objective    inf_pr   inf_du lg(mu)  ||d||  lg(rg) alpha_du alpha_pr  ls
 260r2.8749765e+004 2.33e-002 3.59e-003  -5.3 8.40e-002    -  1.00e+000 1.00e+000h  1
 261r2.8739136e+004 2.33e-002 4.13e-002  -6.3 2.03e-002    -  9.99e-001 1.00e+000h  1
 262r2.8741745e+004 3.06e-002 5.96e+001  -6.1 1.85e-002    -  1.00e+000 2.81e-001h  1
 263r2.8800371e+004 2.40e-002 1.20e+001  -6.2 1.39e-001    -  1.00e+000 8.05e-001h  1
 264r2.8784342e+004 2.61e-002 3.40e+000  -6.2 4.66e-002    -  1.00e+000 6.56e-001f  1
 265r2.8779770e+004 2.66e-002 8.84e-005  -6.2 1.84e-002    -  1.00e+000 1.00e+000f  1
 266r2.8780218e+004 2.65e-002 1.22e-004  -6.2 5.15e-003    -  1.00e+000 1.00e+000h  1
 267r2.8780890e+004 2.64e-002 6.89e-006  -6.2 1.28e-003    -  1.00e+000 1.00e+000h  1
 268 2.8780990e+004 2.64e-002 1.00e+002  -0.9 3.86e+001    -  1.81e-004 1.81e-004s 10
 269r2.8780990e+004 2.64e-002 8.46e+002  -2.1 0.00e+000    -  0.00e+000 3.52e-007R 12
iter    objective    inf_pr   inf_du lg(mu)  ||d||  lg(rg) alpha_du alpha_pr  ls
 270r2.8781291e+004 2.43e-002 2.27e+002  -4.2 2.42e-002    -  9.41e-001 1.53e-001f  1
 271 2.8781206e+004 2.43e-002 4.65e+002  -2.1 2.28e+000    -  1.66e-001 2.37e-004h  2
 272r2.8781206e+004 2.43e-002 4.66e+002  -2.1 0.00e+000    -  0.00e+000 4.03e-007R 12
 273r2.8780813e+004 2.38e-002 1.65e+002  -6.4 5.31e-003    -  9.81e-001 5.51e-001f  1
 274 2.8780714e+004 2.38e-002 5.07e+002  -6.0 2.75e+000    -  1.41e-001 2.75e-004f  1
 275 2.8781111e+004 2.38e-002 1.06e+004   1.2 2.94e+001    -  2.45e-002 2.11e-004f  2
 276r2.8781111e+004 2.38e-002 9.99e+002  -0.0 0.00e+000    -  0.00e+000 3.09e-007R 13
 277r2.8781129e+004 2.38e-002 1.15e+001  -6.0 1.32e-003    -  9.88e-001 8.44e-001f  1
 278 2.8781106e+004 2.38e-002 8.11e+002  -0.0 2.63e+001    -  1.76e-002 3.87e-005f  3
 279 2.8781392e+004 2.38e-002 4.39e+003  -0.0 2.84e+001    -  8.95e-003 1.94e-004h  3
iter    objective    inf_pr   inf_du lg(mu)  ||d||  lg(rg) alpha_du alpha_pr  ls
 280r2.8781392e+004 2.38e-002 9.99e+002  -0.0 0.00e+000    -  0.00e+000 4.38e-007R 12
 281r2.8781419e+004 2.38e-002 1.09e+001  -6.0 1.19e-003    -  9.89e-001 8.91e-001f  1
 282r2.8781419e+004 2.38e-002 8.06e+001  -0.0 0.00e+000    -  0.00e+000 3.23e-007R 10
 283r2.8781408e+004 2.38e-002 4.07e+000  -6.0 1.14e-003    -  9.49e-001 9.10e-001f  1
 284 2.8781339e+004 2.38e-002 2.30e+003  -0.0 6.90e+000    -  6.07e-002 1.63e-004h  1
 285r2.8781339e+004 2.38e-002 9.99e+002  -0.0 0.00e+000    -  0.00e+000 3.47e-007R 12
 286r2.8781349e+004 2.38e-002 1.08e+001  -6.0 1.07e-003    -  9.90e-001 9.38e-001f  1
 287 2.8781343e+004 2.38e-002 1.34e+003  -0.0 2.09e+001    -  2.23e-002 3.18e-005f  2
 288 2.8781399e+004 2.38e-002 5.35e+003  -0.0 5.92e+001    -  4.35e-003 3.60e-005h  5
 289r2.8781399e+004 2.38e-002 9.99e+002  -0.0 0.00e+000    -  0.00e+000 2.95e-007R 12
iter    objective    inf_pr   inf_du lg(mu)  ||d||  lg(rg) alpha_du alpha_pr  ls
 290r2.8781377e+004 2.38e-002 1.07e+001  -6.0 1.06e-003    -  9.90e-001 9.43e-001f  1
 291 2.8781377e+004 2.38e-002 2.85e+003  -0.0 9.33e+000    -  5.70e-002 5.64e-005h  1
 292r2.8781377e+004 2.38e-002 9.99e+002  -0.0 0.00e+000    -  0.00e+000 3.25e-007R 12
 293r2.8781385e+004 2.38e-002 1.06e+001  -6.0 1.05e-003    -  9.90e-001 9.49e-001f  1
 294r2.8780475e+004 2.23e-002 2.42e-001  -7.5 4.57e-003    -  9.78e-001 9.70e-001f  1
 295 2.8780439e+004 2.23e-002 1.27e+003  -6.0 2.67e+000    -  1.45e-001 1.13e-004f  1
 296 2.8780926e+004 2.23e-002 7.15e+003   1.3 8.90e+001    -  4.27e-003 1.42e-004f  2
 297r2.8780926e+004 2.23e-002 9.99e+002  -0.1 0.00e+000    -  0.00e+000 2.54e-007R 12
 298r2.8780874e+004 2.23e-002 1.27e+001  -6.1 1.47e-003    -  9.87e-001 6.97e-001f  1
 299 2.8780867e+004 2.23e-002 1.69e+003  -0.1 2.38e+001    -  1.65e-002 1.49e-005f  3
iter    objective    inf_pr   inf_du lg(mu)  ||d||  lg(rg) alpha_du alpha_pr  ls
 300 2.8781069e+004 2.23e-002 6.17e+003  -0.1 9.93e+001    -  2.73e-003 2.04e-004h  2

Number of Iterations....: 300

                                   (scaled)                 (unscaled)
Objective...............:  1.4358304588990899e+002   2.8781069337277142e+004
Dual infeasibility......:  6.1708728553152059e+003   1.2369449221499648e+006
Constraint violation....:  3.3749289316427285e-004   2.2312883371690847e-002
Complementarity.........:  1.6400635661929803e+002   3.2874900322378242e+004
Overall NLP error.......:  1.6400635661929803e+002   1.2369449221499648e+006


Number of objective function evaluations             = 1010
Number of objective gradient evaluations             = 273
Number of equality constraint evaluations            = 1010
Number of inequality constraint evaluations          = 1010
Number of equality constraint Jacobian evaluations   = 330
Number of inequality constraint Jacobian evaluations = 330
Number of Lagrangian Hessian evaluations             = 0
Total CPU secs in IPOPT (w/o function evaluations)   =      1.190
Total CPU secs in NLP function evaluations           =      7.006

EXIT: Maximum Number of Iterations Exceeded.
